c description: Random 3-CNF over 20 variables and 85 clauses
c generator: CNFgen (0.9.2)
c copyright: (C) 2012-2022 Massimo Lauria <massimo.lauria@uniroma1.it>
c url: https://massimolauria.net/cnfgen
c command line: cnfgen --output CNF_4.28/20_bit_85_771.cnf randkcnf 3 20 85
c
p cnf 20 85
4 13 19 0
-1 4 18 0
-5 -6 -11 0
-1 6 16 0
8 -16 -18 0
6 -7 16 0
-5 -16 -17 0
3 8 14 0
-6 -12 20 0
-2 -8 -9 0
1 2 17 0
-6 -12 -14 0
-8 11 18 0
4 5 9 0
-4 7 -20 0
13 16 18 0
-3 8 20 0
6 9 -14 0
-3 15 19 0
4 6 -13 0
3 11 -17 0
-2 -14 -17 0
7 11 -18 0
-5 17 19 0
-9 -16 -18 0
6 -14 19 0
-9 -15 -16 0
2 -4 14 0
4 -9 -16 0
-5 12 -14 0
13 -15 19 0
7 12 -14 0
2 3 -12 0
-5 -14 -16 0
-3 6 19 0
-5 9 12 0
2 7 18 0
2 -3 -10 0
1 -2 20 0
7 -12 15 0
6 -14 -20 0
-4 -15 -20 0
-12 -14 19 0
-9 15 -18 0
7 13 -16 0
4 -7 18 0
3 -7 19 0
9 -13 -16 0
-11 15 19 0
-4 -8 15 0
7 -13 -18 0
6 9 16 0
-1 -9 19 0
12 -13 16 0
-3 9 17 0
5 19 20 0
-4 -9 -16 0
13 19 20 0
2 12 16 0
10 -15 -19 0
-2 13 14 0
1 7 -8 0
-6 9 -11 0
-8 10 -15 0
1 4 11 0
9 -15 -18 0
2 12 -14 0
-3 6 20 0
-7 10 -19 0
5 -8 -15 0
2 6 -16 0
-5 -11 -12 0
1 -18 -19 0
-11 13 16 0
-3 9 12 0
4 9 11 0
5 -10 11 0
-5 -9 -14 0
11 -13 19 0
4 -7 -14 0
10 -12 -19 0
-4 -7 -8 0
-7 -15 19 0
7 12 -17 0
6 -17 18 0
